
******************************************************************************
This program contains Ipopt, a library for large-scale nonlinear optimization.
 Ipopt is released as open source code under the Eclipse Public License (EPL).
         For more information visit http://projects.coin-or.org/Ipopt

This version of Ipopt was compiled from source code available at
    https://github.com/IDAES/Ipopt as part of the Institute for the Design of
    Advanced Energy Systems Process Systems Engineering Framework (IDAES PSE
    Framework) Copyright (c) 2018-2019. See https://github.com/IDAES/idaes-pse.

This version of Ipopt was compiled using HSL, a collection of Fortran codes
    for large-scale scientific computation.  All technical papers, sales and
    publicity material resulting from use of the HSL codes within IPOPT must
    contain the following acknowledgement:
        HSL, a collection of Fortran codes for large-scale scientific
        computation. See http://www.hsl.rl.ac.uk.
******************************************************************************

This is Ipopt version 3.13.2, running with linear solver ma27.

Number of nonzeros in equality constraint Jacobian...:      928
Number of nonzeros in inequality constraint Jacobian.:        0
Number of nonzeros in Lagrangian Hessian.............:      806

Total number of variables............................:      403
                     variables with only lower bounds:      124
                variables with lower and upper bounds:      217
                     variables with only upper bounds:        0
Total number of equality constraints.................:      402
Total number of inequality constraints...............:        0
        inequality constraints with only lower bounds:        0
   inequality constraints with lower and upper bounds:        0
        inequality constraints with only upper bounds:        0

iter    objective    inf_pr   inf_du lg(mu)  ||d||  lg(rg) alpha_du alpha_pr  ls
   0  0.0000000e+00 1.12e+00 8.88e-16  -1.0 0.00e+00    -  0.00e+00 0.00e+00   0
   1  1.0888433e+00 7.49e-01 3.22e+04  -1.0 1.57e+05    -  4.69e-01 4.03e-01h  1
   2  1.1329474e+00 7.39e-01 3.19e+04  -1.0 1.12e+05    -  5.68e-01 1.28e-02h  1
   3  2.8506162e+00 5.33e-01 2.47e+04  -1.0 1.44e+05    -  5.83e-01 3.10e-01h  1
   4  1.2094759e+01 1.08e-01 4.46e+03  -1.0 1.05e+05    -  7.96e-01 9.90e-01h  1
   5  1.3007912e+01 6.49e-03 1.29e+02  -1.0 7.20e+03    -  9.38e-01 9.90e-01h  1
   6  1.3021976e+01 8.56e-05 8.05e+01  -1.0 1.92e+02    -  9.90e-01 9.90e-01h  1
   7  1.3025240e+01 8.29e-05 2.36e+07  -1.0 2.24e+03    -  9.90e-01 3.09e-02f  6
   8  1.3033228e+01 8.04e-05 4.72e+07  -1.0 5.49e+03    -  9.90e-01 3.09e-02f  6
   9  1.3293670e+01 1.80e-04 7.34e+05  -1.0 5.60e+03    -  1.00e+00 9.90e-01H  1
iter    objective    inf_pr   inf_du lg(mu)  ||d||  lg(rg) alpha_du alpha_pr  ls
  10  1.3276896e+01 4.84e-06 2.62e+07  -1.0 3.53e+02    -  1.00e+00 9.90e-01h  1
  11  1.3276247e+01 5.54e-08 2.62e+09  -1.0 1.36e+01    -  1.00e+00 9.90e-01h  1
  12  1.3276239e+01 5.55e-10 2.62e+11  -1.0 1.68e-01    -  1.00e+00 9.90e-01h  1
In iteration 12, 31 Slacks too small, adjusting variable bounds
  13  1.3276239e+01 5.97e-12 2.62e+13  -1.0 1.68e-03    -  1.00e+00 9.90e-01h  1
  14  1.3276239e+01 4.10e-12 2.42e-01  -1.0 1.68e-05    -  1.00e+00 1.00e+00h  1
  15  1.3276223e+01 6.32e-12 2.63e+13  -9.0 8.61e+03    -  9.84e-01 3.78e-05f 15
  16  1.3276215e+01 8.50e-12 2.67e+13  -9.0 6.57e+03    -  9.89e-01 2.47e-05f 16
  17  1.3276214e+01 7.91e-12 2.67e+13  -9.0 5.89e+03    -  9.94e-01 3.45e-06f 19
  18  1.3276214e+01 8.02e-12 2.67e+13  -9.0 5.63e+03    -  1.00e+00 9.02e-07f 21
  19  1.3276214e+01 8.31e-12 2.67e+13  -9.0 5.50e+03    -  1.00e+00 8.80e-13h 41
iter    objective    inf_pr   inf_du lg(mu)  ||d||  lg(rg) alpha_du alpha_pr  ls
  20  1.3023987e+01 3.80e-03 5.21e+11  -9.0 5.43e+03    -  1.00e+00 9.81e-01f  1
  21  1.3020942e+01 3.32e-06 2.29e-02  -9.0 5.39e+01    -  1.00e+00 1.00e+00h  1
  22  1.3020942e+01 2.08e-11 9.94e-08  -9.0 2.02e-03    -  1.00e+00 1.00e+00h  1

Number of Iterations....: 22

                                   (scaled)                 (unscaled)
Objective...............:   1.3020942110369527e+01    1.3020942110369527e+01
Dual infeasibility......:   9.9438401267204331e-08    9.9438401267204331e-08
Constraint violation....:   2.0825785540523611e-11    2.0825785540523611e-11
Complementarity.........:   2.0565948840945987e-09    2.0565948840945987e-09
Overall NLP error.......:   6.4002373302739574e-10    9.9438401267204331e-08


Number of objective function evaluations             = 167
Number of objective gradient evaluations             = 23
Number of equality constraint evaluations            = 167
Number of inequality constraint evaluations          = 0
Number of equality constraint Jacobian evaluations   = 23
Number of inequality constraint Jacobian evaluations = 0
Number of Lagrangian Hessian evaluations             = 22
Total CPU secs in IPOPT (w/o function evaluations)   =      0.058
Total CPU secs in NLP function evaluations           =      1.425

EXIT: Optimal Solution Found.
